
  22   10
  10   10   10   10   10   10   10   10   10   10

   0   0   0   0   0   0   0   0   0   0   0   2 2 4 
   8  10  10  10  10  10  10  10  10  10  10   2 7 3 
   7  10  10  10  10  10  10  10  10  10  10   1 5 
   5  10  10  10  10  10  10  10  10  10  10   1 5 
   1  10  10  10  10  10  10  10  10  10  10   3 11 9 6 
   4  10  10  10  10  10  10  10  10  10  10   4 21 15 12 8 
   8  10  10  10  10  10  10  10  10  10  10   3 13 11 10 
   1  10  10  10  10  10  10  10  10  10  10   2 20 10 
   9  10  10  10  10  10  10  10  10  10  10   2 15 13 
   5  10  10  10  10  10  10  10  10  10  10   2 19 14 
   9  10  10  10  10  10  10  10  10  10  10   2 20 16 
   5  10  10  10  10  10  10  10  10  10  10   2 19 16 
   5  10  10  10  10  10  10  10  10  10  10   3 21 19 18 
   3  10  10  10  10  10  10  10  10  10  10   1 16 
   3  10  10  10  10  10  10  10  10  10  10   2 20 18 
   8  10  10  10  10  10  10  10  10  10  10   1 17 
   1  10  10  10  10  10  10  10  10  10  10   1 18 
   2  10  10  10  10  10  10  10  10  10  10   1 22
   7  10  10  10  10  10  10  10  10  10  10   1 22
   1  10  10  10  10  10  10  10  10  10  10   1 22
   9  10  10  10  10  10  10  10  10  10  10   1 22
   0   0   0   0   0   0   0   0   0   0   0   0 
